c clasp version 2.1.4
c Reading from ...arks/31_Nodes/PBencd_EuclideanCost.opb
c Solving...
o 1069
o 1032
o 1024
o 1015
o 1003
o 999
o 997
o 992
o 991
o 989
o 986
o 980
o 960
o 956
o 954
o 946
o 944
o 934
o 932
o 920
o 918
o 913
o 900
o 895
o 866
o 865
o 856
o 855
o 853
o 851
o 845
o 835
o 833
o 829
o 824
o 819
o 813
o 812
o 802
o 798
o 796
o 793
o 789
o 768
o 765
o 764
o 760
o 755
o 753
o 751
o 738
o 734
o 723
o 721
o 717
o 716
o 705
o 693
o 691
o 687
o 685
o 682
o 675
o 671
o 665
o 664
o 660
o 656
o 651
o 650
o 642
o 641
o 633
o 630
o 625
o 616
o 593
o 589
o 582
o 579
o 575
o 574
o 570
o 565
o 560
o 559
o 556
o 552
o 544
o 543
o 541
o 540
o 539
o 536
o 523
o 517
o 514
o 505
o 503
o 492
o 489
o 484
